86 25 162 130 147 94 150 55 20 181 46 27 11 114 132 105 103 182 81 163 113 24 19 141 9 8 101 115 2 82 39 5 17 84 58 149 63 142 188 95 85 159 173 64 186 13 67 32 165 44 98 77 30 56 71 134 160 193 79 75 126 108 124 145 45 51 7 65 37 185 148 167 109 41 22 120 189 100 194 197 73 111 60 170 6 131 66 74 158 35 128 107 198 175 196 190 28 127 57 102 110 192 21 184 172 152 69 48 169 97 138 88 10 89 16 139 166 96 104 31 93 161 125 199 155 0 49 168 174 129 33 80 137 119 179 26 23 87 178 12 180 78 146 164 40 83 136 171 68 133 156 106 183 157 151 15 62 153 14 72 38 90 53 76 42 70 187 122 121 92 3 154 43 59 52 123 176 4 117 61 34 118 50 99 29 143 1 191 36 195 18 47 140 135 144 116 91 177 54 112